Problem:    ex1
Rows:       4
Columns:    3
Non-zeros:  6
Status:     OPTIMAL
Objective:  contractacions = 30 (MINimum)

   No.   Row name   St   Activity     Lower bound   Upper bound    Marginal
------ ------------ -- ------------- ------------- ------------- -------------
     1 contractacions
                    B             30                             
     2 r[M]         NL            10            10                           1 
     3 r[T]         NL            12            12                           1 
     4 r[N]         NL             8             8                           1 

   No. Column name  St   Activity     Lower bound   Upper bound    Marginal
------ ------------ -- ------------- ------------- ------------- -------------
     1 treballadors[M]
                    B             10             0               
     2 treballadors[T]
                    B             12             0               
     3 treballadors[N]
                    B              8             0               

Karush-Kuhn-Tucker optimality conditions:

KKT.PE: max.abs.err = 0.00e+00 on row 0
        max.rel.err = 0.00e+00 on row 0
        High quality

KKT.PB: max.abs.err = 0.00e+00 on row 0
        max.rel.err = 0.00e+00 on row 0
        High quality

KKT.DE: max.abs.err = 0.00e+00 on column 0
        max.rel.err = 0.00e+00 on column 0
        High quality

KKT.DB: max.abs.err = 0.00e+00 on row 0
        max.rel.err = 0.00e+00 on row 0
        High quality

End of output
